22
115 87 80 79 42 68
17 11 15 14 10
104 32 48 105 107 91
16 19 18 20 21
12 6 8 9 7
90 94 56 86 54 84
5 1 3 4 2
45 46 44 58 43
40 37 39 38 41
116 117 60 63 88 28
33 29 34 35 31
67 108 99 57 70 64
100 81 118 93 65 22
92 75 61 52 55 119
110 50 114 49 47 109
101 71
27 26 30 23 24
74 69 120 95 111 13
73 96 66 78 62 83
82 72 53 98 59 102
25 76 89 77 112 103
97 36 51 85 113 106
